============================[ Problem Statistics ]=============================|                                                                             ||  Number of variables:          4242                                         ||  Number of clauses:            9997                                         ||  Parse time:                   0.39 s                                       ||                                                                             |============================[ Search Statistics ]==============================| Conflicts |          ORIGINAL         |          LEARNT          | Progress ||           |    Vars  Clauses Literals |    Limit  Clauses Lit/Cl |          |===============================================================================|       100 |    1591     6202   614783 |     2274      100     53 | 62.501 % |===============================================================================restarts              : 3conflicts             : 222            (373 /sec)decisions             : 488            (0.00 % random) (820 /sec)propagations          : 11696          (19657 /sec)conflict literals     : 16202          (95.03 % deleted)CPU time              : 0.595 sSATISFIABLE